Route #1: 1 50 77 68 80 12 21 58 94 92 100 93 99 17 60 53 27 52 7 48 19 11 90 32 70 62 88 31 69 1 
Route #2: 1 1 20 66 71 51 81 78 3 76 24 4 39 56 23 41 72 73 57 37 85 44 16 83 6 40 26 28 1 
Route #3: 1 9 65 55 89 5 98 59 96 13 97 87 2 42 15 43 38 14 91 61 84 45 8 18 82 46 36 49 64 63 10 1 
Route #4: 1 33 79 54 74 22 75 67 25 29 34 35 30 47 86 95 1 

Cost 1204.84
Time 2.4704


 * Another infos *

 Iterations: 101 Time: 2.4704 sec - 0.0412 min - 0.0007 horas
0.0000 h 0.0412 min
Problem dimension: 101
